; chc-comp19-benchmarks/./lra-ts/chc-lra-ts-0163_000.smt2
(set-logic HORN)

(declare-fun |invariant| ( Real Real Real Real Real Real Real Real Real Real Real Real Real Real Real Real Real Real Real Real Real Real Real Real Real Real Real Real Real Real Real Real Real Real Real Real Real Real Real Real Real Real Real Real Real Real Real Real Real Real Real Real Real Real Real Real Real Real Real Real Real Real Real Real Real Real Real Real Real Real Real Real Bool Bool Bool Bool Bool Bool Bool Bool Bool Bool Bool Bool Bool Real Real Real Real Real Real Real ) Bool)

(assert
  (forall ( (A Real) (B Real) (C Real) (D Real) (E Real) (F Real) (G Real) (H Real) (I Real) (J Real) (K Real) (L Real) (M Real) (N Real) (O Real) (P Real) (Q Real) (R Real) (S Real) (T Real) (U Real) (V Real) (W Real) (X Real) (Y Real) (Z Real) (A1 Real) (B1 Real) (C1 Real) (D1 Real) (E1 Real) (F1 Real) (G1 Real) (H1 Real) (I1 Real) (J1 Real) (K1 Real) (L1 Real) (M1 Real) (N1 Real) (O1 Real) (P1 Real) (Q1 Real) (R1 Real) (S1 Real) (T1 Real) (U1 Real) (V1 Real) (W1 Real) (X1 Real) (Y1 Real) (Z1 Real) (A2 Real) (B2 Real) (C2 Real) (D2 Real) (E2 Real) (F2 Real) (G2 Real) (H2 Real) (I2 Real) (J2 Real) (K2 Real) (L2 Real) (M2 Real) (N2 Real) (O2 Real) (P2 Real) (Q2 Real) (R2 Real) (S2 Real) (T2 Real) (U2 Real) (V2 Real) (W2 Real) (X2 Bool) (Y2 Bool) (Z2 Bool) (A3 Bool) (B3 Bool) (C3 Bool) (D3 Bool) (E3 Bool) (F3 Bool) (G3 Bool) (H3 Bool) (I3 Bool) (J3 Bool) (K3 Real) (L3 Real) (M3 Real) (N3 Real) ) 
    (=>
      (and
        (and (= U2 0.0)
     (= T2 0.0)
     (= S2 0.0)
     (= R2 0.0)
     (= Q2 0.0)
     (= P2 0.0)
     (= O2 0.0)
     (= N2 0.0)
     (= M2 0.0)
     (= L2 0.0)
     (= K2 0.0)
     (= J2 0.0)
     (= I2 0.0)
     (= H2 0.0)
     (= G2 0.0)
     (= F2 0.0)
     (= E2 0.0)
     (= D2 0.0)
     (= C2 0.0)
     (= B2 0.0)
     (= A2 0.0)
     (= Z1 0.0)
     (= Y1 0.0)
     (= X1 0.0)
     (= W1 0.0)
     (= V1 0.0)
     (= U1 0.0)
     (= T1 0.0)
     (= S1 0.0)
     (= R1 0.0)
     (= Q1 0.0)
     (= P1 0.0)
     (= O1 0.0)
     (= N1 0.0)
     (= M1 0.0)
     (= L1 0.0)
     (= K1 0.0)
     (= J1 0.0)
     (= I1 0.0)
     (= H1 0.0)
     (= G1 0.0)
     (= F1 0.0)
     (= E1 0.0)
     (= D1 0.0)
     (= C1 0.0)
     (= B1 0.0)
     (= A1 0.0)
     (= Z 0.0)
     (= Y 0.0)
     (= X 0.0)
     (= W 0.0)
     (= V 0.0)
     (= U 0.0)
     (= T 0.0)
     (= S 0.0)
     (= R 0.0)
     (= Q 0.0)
     (= P 0.0)
     (= O 0.0)
     (= N 0.0)
     (= M 0.0)
     (= L 0.0)
     (= K 0.0)
     (= J 0.0)
     (= I 0.0)
     (= H 0.0)
     (= G 0.0)
     (= F 0.0)
     (= E 0.0)
     (= D 0.0)
     (= C 0.0)
     (= B 0.0)
     (= A 0.0)
     (or (and (not B3) C3 D3 E3 F3 G3 H3 I3 J3)
         (and B3 (not C3) D3 E3 F3 G3 H3 I3 J3)
         (and B3 C3 (not D3) E3 F3 G3 H3 I3 J3)
         (and B3 C3 D3 (not E3) F3 G3 H3 I3 J3)
         (and B3 C3 D3 E3 (not F3) G3 H3 I3 J3)
         (and B3 C3 D3 E3 F3 (not G3) H3 I3 J3)
         (and B3 C3 D3 E3 F3 G3 (not H3) I3 J3)
         (and B3 C3 D3 E3 F3 G3 H3 (not I3) J3)
         (and B3 C3 D3 E3 F3 G3 H3 I3 (not J3)))
     (or (= V2 1.0) (= V2 2.0) (= V2 3.0) (= V2 4.0))
     (= A3 true)
     (= Z2 true)
     (= Y2 true)
     (= X2 true)
     (not (= W2 0.0)))
      )
      (invariant B
           C
           D
           E
           F
           G
           H
           I
           J
           K
           L
           M
           N
           O
           P
           Q
           R
           S
           T
           U
           V
           W
           X
           Y
           Z
           A1
           B1
           C1
           D1
           E1
           F1
           G1
           H1
           I1
           J1
           K1
           L1
           M1
           N1
           O1
           P1
           Q1
           R1
           S1
           T1
           U1
           V1
           W1
           X1
           Y1
           Z1
           A2
           B2
           C2
           D2
           E2
           F2
           G2
           H2
           I2
           J2
           K2
           L2
           M2
           N2
           O2
           P2
           Q2
           R2
           S2
           T2
           U2
           X2
           Y2
           Z2
           A3
           B3
           C3
           D3
           E3
           F3
           G3
           H3
           I3
           J3
           K3
           L3
           M3
           N3
           A
           V2
           W2)
    )
  )
)
(assert
  (forall ( (A Real) (B Real) (C Real) (D Real) (E Real) (F Real) (G Real) (H Real) (I Real) (J Real) (K Real) (L Real) (M Real) (N Real) (O Real) (P Real) (Q Real) (R Real) (S Real) (T Real) (U Real) (V Real) (W Real) (X Real) (Y Real) (Z Real) (A1 Real) (B1 Real) (C1 Real) (D1 Real) (E1 Real) (F1 Real) (G1 Real) (H1 Real) (I1 Real) (J1 Real) (K1 Real) (L1 Real) (M1 Real) (N1 Real) (O1 Real) (P1 Real) (Q1 Real) (R1 Real) (S1 Real) (T1 Real) (U1 Real) (V1 Real) (W1 Real) (X1 Real) (Y1 Real) (Z1 Real) (A2 Real) (B2 Real) (C2 Real) (D2 Real) (E2 Real) (F2 Real) (G2 Real) (H2 Real) (I2 Real) (J2 Real) (K2 Real) (L2 Real) (M2 Real) (N2 Real) (O2 Real) (P2 Real) (Q2 Real) (R2 Real) (S2 Real) (T2 Real) (U2 Bool) (V2 Bool) (W2 Bool) (X2 Bool) (Y2 Bool) (Z2 Bool) (A3 Bool) (B3 Bool) (C3 Bool) (D3 Bool) (E3 Bool) (F3 Bool) (G3 Bool) (H3 Real) (I3 Real) (J3 Real) (K3 Real) (L3 Real) (M3 Real) (N3 Real) (O3 Real) (P3 Real) (Q3 Real) (R3 Real) (S3 Real) (T3 Real) (U3 Real) (V3 Real) (W3 Real) (X3 Real) (Y3 Real) (Z3 Real) (A4 Real) (B4 Real) (C4 Real) (D4 Real) (E4 Real) (F4 Real) (G4 Real) (H4 Real) (I4 Real) (J4 Real) (K4 Real) (L4 Real) (M4 Real) (N4 Real) (O4 Real) (P4 Real) (Q4 Real) (R4 Real) (S4 Real) (T4 Real) (U4 Real) (V4 Real) (W4 Real) (X4 Real) (Y4 Real) (Z4 Real) (A5 Real) (B5 Real) (C5 Real) (D5 Real) (E5 Real) (F5 Real) (G5 Real) (H5 Real) (I5 Real) (J5 Real) (K5 Real) (L5 Real) (M5 Real) (N5 Real) (O5 Real) (P5 Real) (Q5 Real) (R5 Real) (S5 Real) (T5 Real) (U5 Real) (V5 Real) (W5 Real) (X5 Real) (Y5 Real) (Z5 Real) (A6 Real) (B6 Real) (C6 Real) (D6 Real) (E6 Real) (F6 Real) (G6 Real) (H6 Real) (I6 Real) (J6 Real) (K6 Real) (L6 Bool) (M6 Bool) (N6 Bool) (O6 Bool) (P6 Bool) (Q6 Bool) (R6 Bool) (S6 Bool) (T6 Bool) (U6 Bool) (V6 Bool) (W6 Bool) (X6 Bool) (Y6 Real) (Z6 Real) (A7 Real) (B7 Real) ) 
    (=>
      (and
        (invariant A
           B
           C
           D
           E
           F
           G
           H
           I
           J
           K
           L
           M
           N
           O
           P
           Q
           R
           S
           T
           U
           V
           W
           X
           Y
           Z
           A1
           B1
           C1
           D1
           E1
           F1
           G1
           H1
           I1
           J1
           K1
           L1
           M1
           N1
           O1
           P1
           Q1
           R1
           S1
           T1
           U1
           V1
           W1
           X1
           Y1
           Z1
           A2
           B2
           C2
           D2
           E2
           F2
           G2
           H2
           I2
           J2
           K2
           L2
           M2
           N2
           O2
           P2
           Q2
           R2
           S2
           T2
           U2
           V2
           W2
           X2
           Y2
           Z2
           A3
           B3
           C3
           D3
           E3
           F3
           G3
           H3
           I3
           J3
           K3
           L3
           M3
           N3)
        (let ((a!1 (and (or (not U2)
                    (and (= Q3 N3)
                         (= R3 N3)
                         (= S3 N3)
                         (= T3 N3)
                         (= U3 N3)
                         (= V3 N3)
                         (= W3 N3)
                         (= X3 N3)
                         (= Y3 N3))
                    (not (= 1.0 M3)))
                (or (not U2)
                    (and (= Q3 0.0)
                         (= R3 0.0)
                         (= S3 0.0)
                         (= T3 0.0)
                         (= U3 0.0)
                         (= V3 0.0)
                         (= W3 0.0)
                         (= X3 0.0)
                         (= Y3 0.0))
                    (= 1.0 M3))
                (or (not V2)
                    (and (= Z3 N3)
                         (= A4 N3)
                         (= B4 N3)
                         (= C4 N3)
                         (= D4 N3)
                         (= E4 N3)
                         (= F4 N3)
                         (= G4 N3)
                         (= H4 N3))
                    (not (= 2.0 M3)))
                (or (not V2)
                    (and (= Z3 0.0)
                         (= A4 0.0)
                         (= B4 0.0)
                         (= C4 0.0)
                         (= D4 0.0)
                         (= E4 0.0)
                         (= F4 0.0)
                         (= G4 0.0)
                         (= H4 0.0))
                    (= 2.0 M3))
                (or (not W2)
                    (and (= I4 N3)
                         (= J4 N3)
                         (= K4 N3)
                         (= L4 N3)
                         (= M4 N3)
                         (= N4 N3)
                         (= O4 N3)
                         (= P4 N3)
                         (= Q4 N3))
                    (not (= 3.0 M3)))
                (or (not W2)
                    (and (= I4 0.0)
                         (= J4 0.0)
                         (= K4 0.0)
                         (= L4 0.0)
                         (= M4 0.0)
                         (= N4 0.0)
                         (= O4 0.0)
                         (= P4 0.0)
                         (= Q4 0.0))
                    (= 3.0 M3))
                (or (not X2)
                    (and (= R4 N3)
                         (= S4 N3)
                         (= T4 N3)
                         (= U4 N3)
                         (= V4 N3)
                         (= W4 N3)
                         (= X4 N3)
                         (= Y4 N3)
                         (= Z4 N3))
                    (not (= 4.0 M3)))
                (or (not X2)
                    (and (= R4 0.0)
                         (= S4 0.0)
                         (= T4 0.0)
                         (= U4 0.0)
                         (= V4 0.0)
                         (= W4 0.0)
                         (= X4 0.0)
                         (= Y4 0.0)
                         (= Z4 0.0))
                    (= 4.0 M3))
                (= A5 1.0)
                (= B5 K1)
                (= C5 L1)
                (= D5 M1)
                (= E5 N1)
                (= F5 O1)
                (= G5 P1)
                (= H5 Q1)
                (= I5 R1)
                (= J5 S1)
                (= K5 T1)
                (= L5 U1)
                (= M5 V1)
                (= N5 W1)
                (= O5 X1)
                (= P5 Y1)
                (= Q5 Z1)
                (= R5 A2)
                (= S5 B2)
                (= T5 C2)
                (= U5 D2)
                (= V5 E2)
                (= W5 F2)
                (= X5 G2)
                (= Y5 H2)
                (= Z5 I2)
                (= A6 J2)
                (= B6 K2)
                (= C6 L2)
                (= D6 M2)
                (= E6 N2)
                (= F6 O2)
                (= G6 P2)
                (= H6 Q2)
                (= I6 R2)
                (= J6 S2)
                (= K6 T2)
                (= Y6 H3)
                (= Z6 I3)
                (= A7 J3)
                (= B7 K3)
                (= L3 0.0)
                (= L6 U2)
                (= M6 V2)
                (= N6 W2)
                (= O6 X2)
                (= P6 Y2)
                (= Q6 Z2)
                (= R6 A3)
                (= S6 B3)
                (= T6 C3)
                (= U6 D3)
                (= V6 E3)
                (= W6 F3)
                (= X6 G3)))
      (a!2 (ite (= Q1 S1)
                (+ 1 (ite (= R1 S1) 2 0))
                (+ (- 1) (ite (= R1 S1) 2 0))))
      (a!28 (ite (= Z1 B2)
                 (+ 1 (ite (= A2 B2) 2 0))
                 (+ (- 1) (ite (= A2 B2) 2 0))))
      (a!54 (ite (= I2 K2)
                 (+ 1 (ite (= J2 K2) 2 0))
                 (+ (- 1) (ite (= J2 K2) 2 0))))
      (a!80 (ite (= R2 T2)
                 (+ 1 (ite (= S2 T2) 2 0))
                 (+ (- 1) (ite (= S2 T2) 2 0))))
      (a!106 (ite (= M3 4.0) B1 (ite (= M3 3.0) S (ite (= M3 2.0) J A))))
      (a!107 (ite (= M3 4.0) C1 (ite (= M3 3.0) T (ite (= M3 2.0) K B))))
      (a!108 (ite (= M3 4.0) D1 (ite (= M3 3.0) U (ite (= M3 2.0) L C))))
      (a!109 (ite (= M3 4.0) E1 (ite (= M3 3.0) V (ite (= M3 2.0) M D))))
      (a!110 (ite (= M3 4.0) F1 (ite (= M3 3.0) W (ite (= M3 2.0) N E))))
      (a!111 (ite (= M3 4.0) G1 (ite (= M3 3.0) X (ite (= M3 2.0) O F))))
      (a!112 (ite (= M3 4.0) H1 (ite (= M3 3.0) Y (ite (= M3 2.0) P G))))
      (a!113 (ite (= M3 4.0) I1 (ite (= M3 3.0) Z (ite (= M3 2.0) Q H))))
      (a!114 (ite (= M3 4.0) J1 (ite (= M3 3.0) A1 (ite (= M3 2.0) R I)))))
(let ((a!3 (ite (= P1 (ite (= R1 S1) S1 Q1))
                (+ 1 (ite (= R1 S1) a!2 1))
                (+ (- 1) (ite (= R1 S1) a!2 1))))
      (a!5 (ite (= (ite (= R1 S1) a!2 1) 0) P1 (ite (= R1 S1) S1 Q1)))
      (a!29 (ite (= Y1 (ite (= A2 B2) B2 Z1))
                 (+ 1 (ite (= A2 B2) a!28 1))
                 (+ (- 1) (ite (= A2 B2) a!28 1))))
      (a!31 (ite (= (ite (= A2 B2) a!28 1) 0) Y1 (ite (= A2 B2) B2 Z1)))
      (a!55 (ite (= H2 (ite (= J2 K2) K2 I2))
                 (+ 1 (ite (= J2 K2) a!54 1))
                 (+ (- 1) (ite (= J2 K2) a!54 1))))
      (a!57 (ite (= (ite (= J2 K2) a!54 1) 0) H2 (ite (= J2 K2) K2 I2)))
      (a!81 (ite (= Q2 (ite (= S2 T2) T2 R2))
                 (+ 1 (ite (= S2 T2) a!80 1))
                 (+ (- 1) (ite (= S2 T2) a!80 1))))
      (a!83 (ite (= (ite (= S2 T2) a!80 1) 0) Q2 (ite (= S2 T2) T2 R2))))
(let ((a!4 (ite (= (ite (= R1 S1) a!2 1) 0) 1 a!3))
      (a!30 (ite (= (ite (= A2 B2) a!28 1) 0) 1 a!29))
      (a!56 (ite (= (ite (= J2 K2) a!54 1) 0) 1 a!55))
      (a!82 (ite (= (ite (= S2 T2) a!80 1) 0) 1 a!81)))
(let ((a!6 (ite (= a!4 0) 1 (ite (= O1 a!5) (+ 1 a!4) (+ (- 1) a!4))))
      (a!32 (ite (= a!30 0) 1 (ite (= X1 a!31) (+ 1 a!30) (+ (- 1) a!30))))
      (a!58 (ite (= a!56 0) 1 (ite (= G2 a!57) (+ 1 a!56) (+ (- 1) a!56))))
      (a!84 (ite (= a!82 0) 1 (ite (= P2 a!83) (+ 1 a!82) (+ (- 1) a!82)))))
(let ((a!7 (ite (= N1 (ite (= a!4 0) O1 a!5)) (+ 1 a!6) (+ (- 1) a!6)))
      (a!8 (ite (= a!6 0) N1 (ite (= a!4 0) O1 a!5)))
      (a!33 (ite (= W1 (ite (= a!30 0) X1 a!31)) (+ 1 a!32) (+ (- 1) a!32)))
      (a!34 (ite (= a!32 0) W1 (ite (= a!30 0) X1 a!31)))
      (a!59 (ite (= F2 (ite (= a!56 0) G2 a!57)) (+ 1 a!58) (+ (- 1) a!58)))
      (a!60 (ite (= a!58 0) F2 (ite (= a!56 0) G2 a!57)))
      (a!85 (ite (= O2 (ite (= a!82 0) P2 a!83)) (+ 1 a!84) (+ (- 1) a!84)))
      (a!86 (ite (= a!84 0) O2 (ite (= a!82 0) P2 a!83))))
(let ((a!9 (ite (= M1 a!8)
                (+ 1 (ite (= a!6 0) 1 a!7))
                (+ (- 1) (ite (= a!6 0) 1 a!7))))
      (a!11 (ite (= (ite (= a!6 0) 1 a!7) 0) M1 a!8))
      (a!35 (ite (= V1 a!34)
                 (+ 1 (ite (= a!32 0) 1 a!33))
                 (+ (- 1) (ite (= a!32 0) 1 a!33))))
      (a!37 (ite (= (ite (= a!32 0) 1 a!33) 0) V1 a!34))
      (a!61 (ite (= E2 a!60)
                 (+ 1 (ite (= a!58 0) 1 a!59))
                 (+ (- 1) (ite (= a!58 0) 1 a!59))))
      (a!63 (ite (= (ite (= a!58 0) 1 a!59) 0) E2 a!60))
      (a!87 (ite (= N2 a!86)
                 (+ 1 (ite (= a!84 0) 1 a!85))
                 (+ (- 1) (ite (= a!84 0) 1 a!85))))
      (a!89 (ite (= (ite (= a!84 0) 1 a!85) 0) N2 a!86)))
(let ((a!10 (ite (= (ite (= a!6 0) 1 a!7) 0) 1 a!9))
      (a!36 (ite (= (ite (= a!32 0) 1 a!33) 0) 1 a!35))
      (a!62 (ite (= (ite (= a!58 0) 1 a!59) 0) 1 a!61))
      (a!88 (ite (= (ite (= a!84 0) 1 a!85) 0) 1 a!87)))
(let ((a!12 (= (ite (= a!10 0) 1 (ite (= L1 a!11) (+ 1 a!10) (+ (- 1) a!10))) 0))
      (a!38 (= (ite (= a!36 0) 1 (ite (= U1 a!37) (+ 1 a!36) (+ (- 1) a!36))) 0))
      (a!64 (= (ite (= a!62 0) 1 (ite (= D2 a!63) (+ 1 a!62) (+ (- 1) a!62))) 0))
      (a!90 (= (ite (= a!88 0) 1 (ite (= M2 a!89) (+ 1 a!88) (+ (- 1) a!88))) 0)))
(let ((a!13 (= K1 (ite a!12 K1 (ite (= a!10 0) L1 a!11))))
      (a!14 (= L1 (ite a!12 K1 (ite (= a!10 0) L1 a!11))))
      (a!15 (= M1 (ite a!12 K1 (ite (= a!10 0) L1 a!11))))
      (a!16 (= N1 (ite a!12 K1 (ite (= a!10 0) L1 a!11))))
      (a!17 (= O1 (ite a!12 K1 (ite (= a!10 0) L1 a!11))))
      (a!18 (= P1 (ite a!12 K1 (ite (= a!10 0) L1 a!11))))
      (a!19 (= Q1 (ite a!12 K1 (ite (= a!10 0) L1 a!11))))
      (a!20 (= R1 (ite a!12 K1 (ite (= a!10 0) L1 a!11))))
      (a!21 (= S1 (ite a!12 K1 (ite (= a!10 0) L1 a!11))))
      (a!39 (= T1 (ite a!38 T1 (ite (= a!36 0) U1 a!37))))
      (a!40 (= U1 (ite a!38 T1 (ite (= a!36 0) U1 a!37))))
      (a!41 (= V1 (ite a!38 T1 (ite (= a!36 0) U1 a!37))))
      (a!42 (= W1 (ite a!38 T1 (ite (= a!36 0) U1 a!37))))
      (a!43 (= X1 (ite a!38 T1 (ite (= a!36 0) U1 a!37))))
      (a!44 (= Y1 (ite a!38 T1 (ite (= a!36 0) U1 a!37))))
      (a!45 (= Z1 (ite a!38 T1 (ite (= a!36 0) U1 a!37))))
      (a!46 (= A2 (ite a!38 T1 (ite (= a!36 0) U1 a!37))))
      (a!47 (= B2 (ite a!38 T1 (ite (= a!36 0) U1 a!37))))
      (a!65 (= C2 (ite a!64 C2 (ite (= a!62 0) D2 a!63))))
      (a!66 (= D2 (ite a!64 C2 (ite (= a!62 0) D2 a!63))))
      (a!67 (= E2 (ite a!64 C2 (ite (= a!62 0) D2 a!63))))
      (a!68 (= F2 (ite a!64 C2 (ite (= a!62 0) D2 a!63))))
      (a!69 (= G2 (ite a!64 C2 (ite (= a!62 0) D2 a!63))))
      (a!70 (= H2 (ite a!64 C2 (ite (= a!62 0) D2 a!63))))
      (a!71 (= I2 (ite a!64 C2 (ite (= a!62 0) D2 a!63))))
      (a!72 (= J2 (ite a!64 C2 (ite (= a!62 0) D2 a!63))))
      (a!73 (= K2 (ite a!64 C2 (ite (= a!62 0) D2 a!63))))
      (a!91 (= L2 (ite a!90 L2 (ite (= a!88 0) M2 a!89))))
      (a!92 (= M2 (ite a!90 L2 (ite (= a!88 0) M2 a!89))))
      (a!93 (= N2 (ite a!90 L2 (ite (= a!88 0) M2 a!89))))
      (a!94 (= O2 (ite a!90 L2 (ite (= a!88 0) M2 a!89))))
      (a!95 (= P2 (ite a!90 L2 (ite (= a!88 0) M2 a!89))))
      (a!96 (= Q2 (ite a!90 L2 (ite (= a!88 0) M2 a!89))))
      (a!97 (= R2 (ite a!90 L2 (ite (= a!88 0) M2 a!89))))
      (a!98 (= S2 (ite a!90 L2 (ite (= a!88 0) M2 a!89))))
      (a!99 (= T2 (ite a!90 L2 (ite (= a!88 0) M2 a!89)))))
(let ((a!22 (ite a!20 (+ (- 1) (ite a!21 4 5)) (ite a!21 4 5)))
      (a!48 (ite a!46 (+ (- 1) (ite a!47 4 5)) (ite a!47 4 5)))
      (a!74 (ite a!72 (+ (- 1) (ite a!73 4 5)) (ite a!73 4 5)))
      (a!100 (ite a!98 (+ (- 1) (ite a!99 4 5)) (ite a!99 4 5))))
(let ((a!23 (ite a!18
                 (+ (- 1) (ite a!19 (+ (- 1) a!22) a!22))
                 (ite a!19 (+ (- 1) a!22) a!22)))
      (a!49 (ite a!44
                 (+ (- 1) (ite a!45 (+ (- 1) a!48) a!48))
                 (ite a!45 (+ (- 1) a!48) a!48)))
      (a!75 (ite a!70
                 (+ (- 1) (ite a!71 (+ (- 1) a!74) a!74))
                 (ite a!71 (+ (- 1) a!74) a!74)))
      (a!101 (ite a!96
                  (+ (- 1) (ite a!97 (+ (- 1) a!100) a!100))
                  (ite a!97 (+ (- 1) a!100) a!100))))
(let ((a!24 (ite a!16
                 (+ (- 1) (ite a!17 (+ (- 1) a!23) a!23))
                 (ite a!17 (+ (- 1) a!23) a!23)))
      (a!50 (ite a!42
                 (+ (- 1) (ite a!43 (+ (- 1) a!49) a!49))
                 (ite a!43 (+ (- 1) a!49) a!49)))
      (a!76 (ite a!68
                 (+ (- 1) (ite a!69 (+ (- 1) a!75) a!75))
                 (ite a!69 (+ (- 1) a!75) a!75)))
      (a!102 (ite a!94
                  (+ (- 1) (ite a!95 (+ (- 1) a!101) a!101))
                  (ite a!95 (+ (- 1) a!101) a!101))))
(let ((a!25 (ite a!14
                 (+ (- 1) (ite a!15 (+ (- 1) a!24) a!24))
                 (ite a!15 (+ (- 1) a!24) a!24)))
      (a!51 (ite a!40
                 (+ (- 1) (ite a!41 (+ (- 1) a!50) a!50))
                 (ite a!41 (+ (- 1) a!50) a!50)))
      (a!77 (ite a!66
                 (+ (- 1) (ite a!67 (+ (- 1) a!76) a!76))
                 (ite a!67 (+ (- 1) a!76) a!76)))
      (a!103 (ite a!92
                  (+ (- 1) (ite a!93 (+ (- 1) a!102) a!102))
                  (ite a!93 (+ (- 1) a!102) a!102))))
(let ((a!26 (or (= (ite a!13 (+ (- 1) a!25) a!25) 0)
                (= a!25 0)
                (= (ite a!15 (+ (- 1) a!24) a!24) 0)
                (= a!24 0)
                (= (ite a!17 (+ (- 1) a!23) a!23) 0)
                (= a!23 0)
                (= (ite a!19 (+ (- 1) a!22) a!22) 0)))
      (a!52 (or (= (ite a!39 (+ (- 1) a!51) a!51) 0)
                (= a!51 0)
                (= (ite a!41 (+ (- 1) a!50) a!50) 0)
                (= a!50 0)
                (= (ite a!43 (+ (- 1) a!49) a!49) 0)
                (= a!49 0)
                (= (ite a!45 (+ (- 1) a!48) a!48) 0)))
      (a!78 (or (= (ite a!65 (+ (- 1) a!77) a!77) 0)
                (= a!77 0)
                (= (ite a!67 (+ (- 1) a!76) a!76) 0)
                (= a!76 0)
                (= (ite a!69 (+ (- 1) a!75) a!75) 0)
                (= a!75 0)
                (= (ite a!71 (+ (- 1) a!74) a!74) 0)))
      (a!104 (or (= (ite a!91 (+ (- 1) a!103) a!103) 0)
                 (= a!103 0)
                 (= (ite a!93 (+ (- 1) a!102) a!102) 0)
                 (= a!102 0)
                 (= (ite a!95 (+ (- 1) a!101) a!101) 0)
                 (= a!101 0)
                 (= (ite a!97 (+ (- 1) a!100) a!100) 0))))
(let ((a!27 (ite a!26 (ite a!12 K1 (ite (= a!10 0) L1 a!11)) 0.0))
      (a!53 (ite a!52 (ite a!38 T1 (ite (= a!36 0) U1 a!37)) 0.0))
      (a!79 (ite a!78 (ite a!64 C2 (ite (= a!62 0) D2 a!63)) 0.0))
      (a!105 (ite a!104 (ite a!90 L2 (ite (= a!88 0) M2 a!89)) 0.0)))
(let ((a!115 (or a!1
                 (and (or (not U2) (= Y6 a!27))
                      (or (not V2) (= Z6 a!53))
                      (or (not W2) (= A7 a!79))
                      (or (not X2) (= B7 a!105))
                      (= Q3 A)
                      (= R3 B)
                      (= S3 C)
                      (= T3 D)
                      (= U3 E)
                      (= V3 F)
                      (= W3 G)
                      (= X3 H)
                      (= Y3 I)
                      (= Z3 J)
                      (= A4 K)
                      (= B4 L)
                      (= C4 M)
                      (= D4 N)
                      (= E4 O)
                      (= F4 P)
                      (= G4 Q)
                      (= H4 R)
                      (= I4 S)
                      (= J4 T)
                      (= K4 U)
                      (= L4 V)
                      (= M4 W)
                      (= N4 X)
                      (= O4 Y)
                      (= P4 Z)
                      (= Q4 A1)
                      (= R4 B1)
                      (= S4 C1)
                      (= T4 D1)
                      (= U4 E1)
                      (= V4 F1)
                      (= W4 G1)
                      (= X4 H1)
                      (= Y4 I1)
                      (= Z4 J1)
                      (= A5 3.0)
                      (= B5 K1)
                      (= C5 L1)
                      (= D5 M1)
                      (= E5 N1)
                      (= F5 O1)
                      (= G5 P1)
                      (= H5 Q1)
                      (= I5 R1)
                      (= J5 S1)
                      (= K5 T1)
                      (= L5 U1)
                      (= M5 V1)
                      (= N5 W1)
                      (= O5 X1)
                      (= P5 Y1)
                      (= Q5 Z1)
                      (= R5 A2)
                      (= S5 B2)
                      (= T5 C2)
                      (= U5 D2)
                      (= V5 E2)
                      (= W5 F2)
                      (= X5 G2)
                      (= Y5 H2)
                      (= Z5 I2)
                      (= A6 J2)
                      (= B6 K2)
                      (= C6 L2)
                      (= D6 M2)
                      (= E6 N2)
                      (= F6 O2)
                      (= G6 P2)
                      (= H6 Q2)
                      (= I6 R2)
                      (= J6 S2)
                      (= K6 T2)
                      (= L3 2.0)
                      (= L6 U2)
                      (= M6 V2)
                      (= N6 W2)
                      (= O6 X2)
                      (= P6 Y2)
                      (= Q6 Z2)
                      (= R6 A3)
                      (= S6 B3)
                      (= T6 C3)
                      (= U6 D3)
                      (= V6 E3)
                      (= W6 F3)
                      (= X6 G3))
                 (and (or (not Y2) (= B5 a!106))
                      (or (not Y2) (= K5 a!106))
                      (or (not Y2) (= T5 a!106))
                      (or (not Y2) (= C6 a!106))
                      (or (not Z2) (= C5 a!107))
                      (or (not Z2) (= L5 a!107))
                      (or (not Z2) (= U5 a!107))
                      (or (not Z2) (= D6 a!107))
                      (or (not A3) (= D5 a!108))
                      (or (not A3) (= M5 a!108))
                      (or (not A3) (= V5 a!108))
                      (or (not A3) (= E6 a!108))
                      (or (not B3) (= E5 a!109))
                      (or (not B3) (= N5 a!109))
                      (or (not B3) (= W5 a!109))
                      (or (not B3) (= F6 a!109))
                      (or (not C3) (= F5 a!110))
                      (or (not C3) (= O5 a!110))
                      (or (not C3) (= X5 a!110))
                      (or (not C3) (= G6 a!110))
                      (or (not D3) (= G5 a!111))
                      (or (not D3) (= P5 a!111))
                      (or (not D3) (= Y5 a!111))
                      (or (not D3) (= H6 a!111))
                      (or (not E3) (= H5 a!112))
                      (or (not E3) (= Q5 a!112))
                      (or (not E3) (= Z5 a!112))
                      (or (not E3) (= I6 a!112))
                      (or (not F3) (= I5 a!113))
                      (or (not F3) (= R5 a!113))
                      (or (not F3) (= A6 a!113))
                      (or (not F3) (= J6 a!113))
                      (or (not G3) (= J5 a!114))
                      (or (not G3) (= S5 a!114))
                      (or (not G3) (= B6 a!114))
                      (or (not G3) (= K6 a!114))
                      (= Q3 A)
                      (= R3 B)
                      (= S3 C)
                      (= T3 D)
                      (= U3 E)
                      (= V3 F)
                      (= W3 G)
                      (= X3 H)
                      (= Y3 I)
                      (= Z3 J)
                      (= A4 K)
                      (= B4 L)
                      (= C4 M)
                      (= D4 N)
                      (= E4 O)
                      (= F4 P)
                      (= G4 Q)
                      (= H4 R)
                      (= I4 S)
                      (= J4 T)
                      (= K4 U)
                      (= L4 V)
                      (= M4 W)
                      (= N4 X)
                      (= O4 Y)
                      (= P4 Z)
                      (= Q4 A1)
                      (= R4 B1)
                      (= S4 C1)
                      (= T4 D1)
                      (= U4 E1)
                      (= V4 F1)
                      (= W4 G1)
                      (= X4 H1)
                      (= Y4 I1)
                      (= Z4 J1)
                      (= A5 2.0)
                      (= Y6 H3)
                      (= Z6 I3)
                      (= A7 J3)
                      (= B7 K3)
                      (= L3 1.0)
                      (= L6 U2)
                      (= M6 V2)
                      (= N6 W2)
                      (= O6 X2)
                      (= P6 Y2)
                      (= Q6 Z2)
                      (= R6 A3)
                      (= S6 B3)
                      (= T6 C3)
                      (= U6 D3)
                      (= V6 E3)
                      (= W6 F3)
                      (= X6 G3))
                 (and (= Q3 A)
                      (= R3 B)
                      (= S3 C)
                      (= T3 D)
                      (= U3 E)
                      (= V3 F)
                      (= W3 G)
                      (= X3 H)
                      (= Y3 I)
                      (= Z3 J)
                      (= A4 K)
                      (= B4 L)
                      (= C4 M)
                      (= D4 N)
                      (= E4 O)
                      (= F4 P)
                      (= G4 Q)
                      (= H4 R)
                      (= I4 S)
                      (= J4 T)
                      (= K4 U)
                      (= L4 V)
                      (= M4 W)
                      (= N4 X)
                      (= O4 Y)
                      (= P4 Z)
                      (= Q4 A1)
                      (= R4 B1)
                      (= S4 C1)
                      (= T4 D1)
                      (= U4 E1)
                      (= V4 F1)
                      (= W4 G1)
                      (= X4 H1)
                      (= Y4 I1)
                      (= Z4 J1)
                      (= A5 L3)
                      (= B5 K1)
                      (= C5 L1)
                      (= D5 M1)
                      (= E5 N1)
                      (= F5 O1)
                      (= G5 P1)
                      (= H5 Q1)
                      (= I5 R1)
                      (= J5 S1)
                      (= K5 T1)
                      (= L5 U1)
                      (= M5 V1)
                      (= N5 W1)
                      (= O5 X1)
                      (= P5 Y1)
                      (= Q5 Z1)
                      (= R5 A2)
                      (= S5 B2)
                      (= T5 C2)
                      (= U5 D2)
                      (= V5 E2)
                      (= W5 F2)
                      (= X5 G2)
                      (= Y5 H2)
                      (= Z5 I2)
                      (= A6 J2)
                      (= B6 K2)
                      (= C6 L2)
                      (= D6 M2)
                      (= E6 N2)
                      (= F6 O2)
                      (= G6 P2)
                      (= H6 Q2)
                      (= I6 R2)
                      (= J6 S2)
                      (= K6 T2)
                      (= Y6 H3)
                      (= Z6 I3)
                      (= A7 J3)
                      (= B7 K3)
                      (= L3 3.0)
                      (= L6 U2)
                      (= M6 V2)
                      (= N6 W2)
                      (= O6 X2)
                      (= P6 Y2)
                      (= Q6 Z2)
                      (= R6 A3)
                      (= S6 B3)
                      (= T6 C3)
                      (= U6 D3)
                      (= V6 E3)
                      (= W6 F3)
                      (= X6 G3)))))
  (and (= O3 M3) a!115 (= P3 N3))))))))))))))))))
      )
      (invariant Q3
           R3
           S3
           T3
           U3
           V3
           W3
           X3
           Y3
           Z3
           A4
           B4
           C4
           D4
           E4
           F4
           G4
           H4
           I4
           J4
           K4
           L4
           M4
           N4
           O4
           P4
           Q4
           R4
           S4
           T4
           U4
           V4
           W4
           X4
           Y4
           Z4
           B5
           C5
           D5
           E5
           F5
           G5
           H5
           I5
           J5
           K5
           L5
           M5
           N5
           O5
           P5
           Q5
           R5
           S5
           T5
           U5
           V5
           W5
           X5
           Y5
           Z5
           A6
           B6
           C6
           D6
           E6
           F6
           G6
           H6
           I6
           J6
           K6
           L6
           M6
           N6
           O6
           P6
           Q6
           R6
           S6
           T6
           U6
           V6
           W6
           X6
           Y6
           Z6
           A7
           B7
           A5
           O3
           P3)
    )
  )
)
(assert
  (forall ( (A Real) (B Real) (C Real) (D Real) (E Real) (F Real) (G Real) (H Real) (I Real) (J Real) (K Real) (L Real) (M Real) (N Real) (O Real) (P Real) (Q Real) (R Real) (S Real) (T Real) (U Real) (V Real) (W Real) (X Real) (Y Real) (Z Real) (A1 Real) (B1 Real) (C1 Real) (D1 Real) (E1 Real) (F1 Real) (G1 Real) (H1 Real) (I1 Real) (J1 Real) (K1 Real) (L1 Real) (M1 Real) (N1 Real) (O1 Real) (P1 Real) (Q1 Real) (R1 Real) (S1 Real) (T1 Real) (U1 Real) (V1 Real) (W1 Real) (X1 Real) (Y1 Real) (Z1 Real) (A2 Real) (B2 Real) (C2 Real) (D2 Real) (E2 Real) (F2 Real) (G2 Real) (H2 Real) (I2 Real) (J2 Real) (K2 Real) (L2 Real) (M2 Real) (N2 Real) (O2 Real) (P2 Real) (Q2 Real) (R2 Real) (S2 Real) (T2 Real) (U2 Bool) (V2 Bool) (W2 Bool) (X2 Bool) (Y2 Bool) (Z2 Bool) (A3 Bool) (B3 Bool) (C3 Bool) (D3 Bool) (E3 Bool) (F3 Bool) (G3 Bool) (H3 Real) (I3 Real) (J3 Real) (K3 Real) (L3 Real) (M3 Real) (N3 Real) ) 
    (=>
      (and
        (invariant A
           B
           C
           D
           E
           F
           G
           H
           I
           J
           K
           L
           M
           N
           O
           P
           Q
           R
           S
           T
           U
           V
           W
           X
           Y
           Z
           A1
           B1
           C1
           D1
           E1
           F1
           G1
           H1
           I1
           J1
           K1
           L1
           M1
           N1
           O1
           P1
           Q1
           R1
           S1
           T1
           U1
           V1
           W1
           X1
           Y1
           Z1
           A2
           B2
           C2
           D2
           E2
           F2
           G2
           H2
           I2
           J2
           K2
           L2
           M2
           N2
           O2
           P2
           Q2
           R2
           S2
           T2
           U2
           V2
           W2
           X2
           Y2
           Z2
           A3
           B3
           C3
           D3
           E3
           F3
           G3
           H3
           I3
           J3
           K3
           L3
           M3
           N3)
        (let ((a!1 (or (and U2 (not (= K3 H3)))
               (and V2 (not (= K3 I3)))
               (and W2 (not (= K3 J3)))))
      (a!2 (or (and X2 (not (= H3 K3)))
               (and V2 (not (= H3 I3)))
               (and W2 (not (= H3 J3)))))
      (a!3 (or (and X2 (not (= I3 K3)))
               (and U2 (not (= I3 H3)))
               (and W2 (not (= I3 J3)))))
      (a!4 (or (and X2 (not (= J3 K3)))
               (and U2 (not (= J3 H3)))
               (and V2 (not (= J3 I3))))))
  (and (or (and X2 a!1) (and U2 a!2) (and V2 a!3) (and W2 a!4)) (<= 3.0 L3)))
      )
      false
    )
  )
)

(check-sat)
(exit)
